c nombre: 10
c densidad: 0.1
p edges 45 90
e 1 24
e 1 32
e 1 37
e 1 42
e 2 23
e 2 28
e 2 29
e 2 32
e 2 42
e 4 13
e 4 16
e 4 20
e 4 27
e 4 30
e 5 25
e 5 30
e 5 38
e 6 24
e 6 36
e 6 45
e 7 9
e 7 13
e 7 30
e 7 40
e 7 41
e 8 27
e 8 43
e 9 14
e 9 25
e 9 41
e 10 11
e 11 18
e 11 22
e 11 42
e 12 25
e 12 31
e 12 34
e 13 17
e 13 29
e 13 41
e 13 45
e 14 16
e 14 25
e 15 18
e 15 25
e 15 36
e 15 43
e 16 20
e 16 22
e 16 43
e 17 21
e 17 29
e 17 31
e 17 34
e 17 38
e 17 42
e 17 43
e 18 26
e 18 38
e 19 27
e 19 36
e 19 40
e 19 41
e 19 45
e 20 26
e 20 33
e 21 22
e 21 28
e 21 32
e 22 23
e 23 26
e 23 44
e 24 35
e 24 43
e 25 29
e 25 32
e 25 36
e 25 44
e 27 35
e 27 38
e 27 45
e 30 32
e 30 41
e 31 35
e 33 39
e 34 36
e 35 36
e 38 39
e 38 43
e 43 45
